
Gurobi 9.5.0 (linux64) logging started Tue Nov  7 13:15:46 2023

Set parameter LogFile to value "/lustre1/scratch/348/vsc34888/JointResearch/05.Models/06.Benchmarking/D.Representative_days_based_on_RES_and_Demand/9n_ByStages_nc60/openStarNet_9n_ByStages_nc60.log"
Set parameter Method to value 2
Set parameter MIPFocus to value 1
Set parameter Presolve to value 2
Set parameter RINS to value 100
Set parameter MIPGap to value 0.01
Set parameter Threads to value 36
Set parameter TimeLimit to value 604800
Set parameter IterationLimit to value 760000000
Gurobi Optimizer version 9.5.0 build v9.5.0rc5 (linux64)
Thread count: 36 physical cores, 36 logical processors, using up to 36 threads
Optimize a model with 16596 rows, 8662 columns and 49525 nonzeros
Model fingerprint: 0x27dcbfec
Variable types: 8626 continuous, 36 integer (36 binary)
Coefficient statistics:
  Matrix range     [8e-04, 1e+03]
  Objective range  [1e+00, 1e+00]
  Bounds range     [8e-04, 2e+00]
  RHS range        [8e-04, 1e+00]
Presolve removed 5976 rows and 2875 columns
Presolve time: 0.08s
Presolved: 10620 rows, 5787 columns, 37611 nonzeros
Variable types: 5751 continuous, 36 integer (36 binary)
Found heuristic solution: objective 657.8724023
Root relaxation presolved: 10620 rows, 5787 columns, 37611 nonzeros

Root barrier log...

Ordering time: 0.00s

Barrier statistics:
 Dense cols : 36
 AA' NZ     : 1.429e+05
 Factor NZ  : 2.864e+05 (roughly 9 MB of memory)
 Factor Ops : 1.172e+07 (less than 1 second per iteration)
 Threads    : 36

                  Objective                Residual
Iter       Primal          Dual         Primal    Dual     Compl     Time
   0   3.80360921e+05 -2.59217008e+07  6.46e+00 2.19e+02  3.80e+03     0s
   1   5.49963959e+04 -7.54892263e+06  7.48e-01 1.93e-09  5.04e+02     0s
   2   1.20988351e+04 -1.11989404e+06  2.59e-03 4.74e-10  5.42e+01     0s
   3   4.50764038e+03 -9.59257470e+04  4.10e-05 4.24e-11  4.80e+00     0s
   4   1.37146190e+03 -1.18180112e+04  5.05e-13 4.18e-12  6.30e-01     0s
   5   8.36258468e+02 -3.59508254e+03  2.28e-13 1.25e-12  2.12e-01     0s
   6   4.90054470e+02 -1.13379043e+03  2.02e-13 6.82e-13  7.76e-02     0s
   7   3.29259347e+02 -4.76524504e+02  1.07e-13 4.55e-13  3.85e-02     0s
   8   1.59620437e+02 -9.72593818e+01  1.71e-13 9.09e-13  1.23e-02     0s
   9   1.08909423e+02  4.77572488e+01  3.73e-13 9.09e-13  2.92e-03     0s
  10   9.52190458e+01  7.97651819e+01  9.80e-12 9.09e-13  7.38e-04     0s
  11   8.66546288e+01  8.28257808e+01  3.08e-12 4.55e-13  1.83e-04     0s
  12   8.52691146e+01  8.40094340e+01  9.30e-12 9.09e-13  6.02e-05     0s
  13   8.46909542e+01  8.43748850e+01  6.15e-10 9.09e-13  1.51e-05     0s
  14   8.45751974e+01  8.45304100e+01  1.09e-10 9.09e-13  2.14e-06     0s
  15   8.45711107e+01  8.45710647e+01  3.77e-11 9.09e-13  2.20e-09     0s
  16   8.45711062e+01  8.45711061e+01  1.62e-10 9.09e-13  2.20e-12     0s

Barrier solved model in 16 iterations and 0.35 seconds (0.27 work units)
Optimal objective 8.45711062e+01


Root relaxation: objective 8.457111e+01, 461 iterations, 0.24 seconds (0.11 work units)

    Nodes    |    Current Node    |     Objective Bounds      |     Work
 Expl Unexpl |  Obj  Depth IntInf | Incumbent    BestBd   Gap | It/Node Time

     0     0   84.57111    0    6  657.87240   84.57111  87.1%     -    0s
H    0     0                     571.8707926   84.57111  85.2%     -    0s
H    0     0                     105.9782408   93.90752  11.4%     -    0s
     0     0   93.90752    0    1  105.97824   93.90752  11.4%     -    0s
H    0     0                      95.3010492   93.90752  1.46%     -    0s
H    0     0                      94.9532408   94.12407  0.87%     -    0s
     0     0   94.95324    0    1   94.95324   94.95324  0.00%     -    0s

Cutting planes:
  Gomory: 1
  Implied bound: 2
  MIR: 90
  Relax-and-lift: 19

Explored 1 nodes (782 simplex iterations) in 0.62 seconds (0.41 work units)
Thread count was 36 (of 36 available processors)

Solution count 5: 94.9532 95.301 105.978 ... 657.872

Optimal solution found (tolerance 1.00e-02)
Best objective 9.495324083270e+01, best bound 9.495324083270e+01, gap 0.0000%

Gurobi 9.5.0 (linux64) logging started Tue Nov  7 13:15:49 2023

Set parameter LogFile to value "/lustre1/scratch/348/vsc34888/JointResearch/05.Models/06.Benchmarking/D.Representative_days_based_on_RES_and_Demand/9n_ByStages_nc60/openStarNet_9n_ByStages_nc60.log"
Set parameter Method to value 2
Set parameter MIPFocus to value 1
Set parameter Presolve to value 2
Set parameter RINS to value 100
Set parameter MIPGap to value 0.01
Set parameter Threads to value 36
Set parameter TimeLimit to value 604800
Set parameter IterationLimit to value 760000000
No parameters matching 'relax_integrality' found
Gurobi Optimizer version 9.5.0 build v9.5.0rc5 (linux64)
Thread count: 36 physical cores, 36 logical processors, using up to 36 threads
Optimize a model with 16596 rows, 8626 columns and 40849 nonzeros
Model fingerprint: 0x9ca998c4
Coefficient statistics:
  Matrix range     [8e-04, 1e+03]
  Objective range  [1e+00, 1e+00]
  Bounds range     [8e-04, 2e+00]
  RHS range        [8e-04, 2e+01]
Presolve removed 14436 rows and 4855 columns
Presolve time: 0.02s
Presolved: 2160 rows, 3771 columns, 8271 nonzeros

Ordering time: 0.00s

Barrier statistics:
 AA' NZ     : 6.060e+03
 Factor NZ  : 2.220e+04 (roughly 3 MB of memory)
 Factor Ops : 2.735e+05 (less than 1 second per iteration)
 Threads    : 1

                  Objective                Residual
Iter       Primal          Dual         Primal    Dual     Compl     Time
   0   4.20115862e+05 -1.51886150e+07  4.18e+00 4.55e-13  4.47e+03     0s
   1   6.45133927e+04 -3.05897062e+06  4.69e-01 3.32e-12  5.47e+02     0s
   2   1.50797658e+04 -5.26694890e+05  1.84e-02 2.73e-12  6.79e+01     0s
   3   5.08993220e+03 -2.13179781e+04  2.31e-04 2.27e-12  3.20e+00     0s
   4   8.13885603e+02 -3.02783209e+03  3.82e-07 1.36e-12  4.65e-01     0s
   5   4.96087056e+02 -7.62612168e+02  7.22e-08 9.09e-13  1.52e-01     0s
   6   2.79553799e+02 -2.20391325e+02  2.20e-08 4.55e-13  6.05e-02     0s
   7   1.49897124e+02  4.02999008e+00  5.47e-09 9.09e-13  1.77e-02     0s
   8   1.04246042e+02  7.40635686e+01  6.83e-10 1.36e-12  3.65e-03     0s
   9   9.62529002e+01  8.97598513e+01  7.75e-11 9.09e-13  7.86e-04     0s
  10   9.52357761e+01  9.34658708e+01  1.45e-11 9.09e-13  2.14e-04     0s
  11   9.50105667e+01  9.46085764e+01  2.54e-12 9.09e-13  4.87e-05     0s
  12   9.49553999e+01  9.48657024e+01  8.79e-13 9.09e-13  1.09e-05     0s
  13   9.49533463e+01  9.49530287e+01  1.57e-12 9.09e-13  3.84e-08     0s
  14   9.49532409e+01  9.49532406e+01  1.14e-12 9.09e-13  3.84e-11     0s

Barrier solved model in 14 iterations and 0.04 seconds (0.03 work units)
Optimal objective 9.49532409e+01

Crossover log...

     708 DPushes remaining with DInf 0.0000000e+00                 0s
       0 DPushes remaining with DInf 0.0000000e+00                 0s

      76 PPushes remaining with PInf 0.0000000e+00                 0s
       0 PPushes remaining with PInf 0.0000000e+00                 0s

  Push phase complete: Pinf 0.0000000e+00, Dinf 8.4030005e-14      0s

Iteration    Objective       Primal Inf.    Dual Inf.      Time
     127    9.4953241e+01   0.000000e+00   0.000000e+00      0s

Solved in 127 iterations and 0.05 seconds (0.04 work units)
Optimal objective  9.495324083e+01

Gurobi 9.5.0 (linux64) logging started Wed Nov 15 15:07:38 2023

Set parameter LogFile to value "/lustre1/scratch/348/vsc34888/JointResearch/05.Models/06.Benchmarking/D.Representative_days_based_on_RES_and_Demand/9n_ByStages_nc60/openStarNet_9n_ByStages_nc60.log"
Set parameter Method to value 2
Set parameter MIPFocus to value 1
Set parameter Presolve to value 2
Set parameter RINS to value 100
Set parameter MIPGap to value 0.01
Set parameter Threads to value 36
Set parameter TimeLimit to value 604800
Set parameter IterationLimit to value 760000000
Gurobi Optimizer version 9.5.0 build v9.5.0rc5 (linux64)
Thread count: 36 physical cores, 36 logical processors, using up to 36 threads
Optimize a model with 16852 rows, 8792 columns and 51034 nonzeros
Model fingerprint: 0xfc45175f
Variable types: 8756 continuous, 36 integer (36 binary)
Coefficient statistics:
  Matrix range     [9e-04, 2e+03]
  Objective range  [1e+00, 1e+00]
  Bounds range     [4e-04, 2e+00]
  RHS range        [4e-04, 1e+00]
Presolve removed 6055 rows and 2916 columns
Presolve time: 0.07s
Presolved: 10797 rows, 5876 columns, 38231 nonzeros
Variable types: 5840 continuous, 36 integer (36 binary)
Found heuristic solution: objective 780.7287748
Root relaxation presolved: 10797 rows, 5876 columns, 38231 nonzeros

Root barrier log...

Ordering time: 0.00s

Barrier statistics:
 Dense cols : 36
 AA' NZ     : 1.453e+05
 Factor NZ  : 2.963e+05 (roughly 10 MB of memory)
 Factor Ops : 1.239e+07 (less than 1 second per iteration)
 Threads    : 36

                  Objective                Residual
Iter       Primal          Dual         Primal    Dual     Compl     Time
   0   3.74902430e+05 -1.89530840e+07  6.33e+00 1.62e+02  2.70e+03     0s
   1   5.22121326e+04 -5.44624613e+06  7.03e-01 8.02e-10  3.52e+02     0s
   2   1.07466712e+04 -7.82821740e+05  5.84e-03 4.41e-10  3.75e+01     0s
   3   2.88915339e+03 -2.86792233e+04  2.90e-05 1.30e-11  1.48e+00     0s
   4   9.32115966e+02 -5.45334947e+03  5.54e-13 2.45e-12  3.00e-01     0s
   5   6.53408399e+02 -1.94166623e+03  2.90e-13 8.99e-13  1.22e-01     0s
   6   4.24520903e+02 -7.24260512e+02  2.66e-13 4.55e-13  5.40e-02     0s
   7   2.41770389e+02 -1.90364923e+02  1.83e-13 9.09e-13  2.03e-02     0s
   8   1.44523967e+02  9.59705402e+00  2.59e-13 4.55e-13  6.34e-03     0s
   9   1.18366058e+02  7.56310710e+01  7.52e-13 9.09e-13  2.01e-03     0s
  10   9.17528868e+01  8.20028031e+01  8.11e-12 4.55e-13  4.58e-04     0s
  11   8.94701170e+01  8.31706034e+01  1.85e-11 9.09e-13  2.96e-04     0s
  12   8.88329970e+01  8.35358241e+01  4.84e-11 4.55e-13  2.49e-04     0s
  13   8.63792053e+01  8.41116300e+01  8.70e-11 9.09e-13  1.07e-04     0s
  14   8.54754765e+01  8.46741990e+01  9.20e-11 4.55e-13  3.77e-05     0s
  15   8.53105585e+01  8.48883263e+01  1.17e-10 4.55e-13  1.99e-05     0s
  16   8.51579106e+01  8.49339753e+01  5.85e-11 4.55e-13  1.05e-05     0s
  17   8.50097027e+01  8.49932759e+01  1.44e-08 4.55e-13  7.72e-07     0s
  18   8.49997368e+01  8.49996584e+01  2.43e-09 9.09e-13  3.69e-09     0s
  19   8.49996793e+01  8.49996793e+01  1.05e-11 9.09e-13  4.79e-15     0s

Barrier solved model in 19 iterations and 0.36 seconds (0.28 work units)
Optimal objective 8.49996793e+01


Root relaxation: objective 8.499968e+01, 509 iterations, 0.25 seconds (0.13 work units)

    Nodes    |    Current Node    |     Objective Bounds      |     Work
 Expl Unexpl |  Obj  Depth IntInf | Incumbent    BestBd   Gap | It/Node Time

     0     0   84.99968    0    6  780.72877   84.99968  89.1%     -    0s
H    0     0                     686.1953697   84.99968  87.6%     -    0s
H    0     0                     104.9495737   93.04914  11.3%     -    0s
     0     0   93.04914    0    1  104.94957   93.04914  11.3%     -    0s
H    0     0                      94.5872929   93.04914  1.63%     -    0s
H    0     0                      93.9245737   93.24088  0.73%     -    0s
     0     0   93.24088    0    1   93.92457   93.24088  0.73%     -    0s

Cutting planes:
  Implied bound: 1
  MIR: 101
  Relax-and-lift: 21

Explored 1 nodes (1074 simplex iterations) in 0.61 seconds (0.44 work units)
Thread count was 36 (of 36 available processors)

Solution count 5: 93.9246 94.5873 104.95 ... 780.729

Optimal solution found (tolerance 1.00e-02)
Best objective 9.392457374426e+01, best bound 9.324088394856e+01, gap 0.7279%

Gurobi 9.5.0 (linux64) logging started Wed Nov 15 15:07:40 2023

Set parameter LogFile to value "/lustre1/scratch/348/vsc34888/JointResearch/05.Models/06.Benchmarking/D.Representative_days_based_on_RES_and_Demand/9n_ByStages_nc60/openStarNet_9n_ByStages_nc60.log"
Set parameter Method to value 2
Set parameter MIPFocus to value 1
Set parameter Presolve to value 2
Set parameter RINS to value 100
Set parameter MIPGap to value 0.01
Set parameter Threads to value 36
Set parameter TimeLimit to value 604800
Set parameter IterationLimit to value 760000000
No parameters matching 'relax_integrality' found
Gurobi Optimizer version 9.5.0 build v9.5.0rc5 (linux64)
Thread count: 36 physical cores, 36 logical processors, using up to 36 threads
Optimize a model with 16852 rows, 8756 columns and 42214 nonzeros
Model fingerprint: 0x6cca6278
Coefficient statistics:
  Matrix range     [9e-04, 2e+03]
  Objective range  [1e+00, 1e+00]
  Bounds range     [4e-04, 2e+00]
  RHS range        [4e-04, 2e+01]
Presolve removed 14656 rows and 4929 columns
Presolve time: 0.01s
Presolved: 2196 rows, 3827 columns, 8402 nonzeros

Ordering time: 0.00s

Barrier statistics:
 AA' NZ     : 6.161e+03
 Factor NZ  : 2.257e+04 (roughly 3 MB of memory)
 Factor Ops : 2.780e+05 (less than 1 second per iteration)
 Threads    : 1

                  Objective                Residual
Iter       Primal          Dual         Primal    Dual     Compl     Time
   0   4.13017049e+05 -1.13836449e+07  4.16e+00 4.55e-13  3.26e+03     0s
   1   6.05338624e+04 -2.27211781e+06  4.46e-01 2.16e-12  3.92e+02     0s
   2   1.38723827e+04 -3.72335970e+05  1.52e-02 1.93e-12  4.74e+01     0s
   3   3.23834223e+03 -1.94061481e+04  3.67e-04 1.59e-12  2.70e+00     0s
   4   8.31493307e+02 -2.47393314e+03  2.59e-06 9.09e-13  3.94e-01     0s
   5   5.17232656e+02 -7.05765860e+02  6.11e-07 9.09e-13  1.46e-01     0s
   6   3.02839853e+02 -2.73604833e+02  2.54e-07 4.55e-13  6.87e-02     0s
   7   1.52773868e+02 -6.12259471e+01  5.50e-08 9.09e-13  2.55e-02     0s
   8   1.05658791e+02  5.91758772e+01  8.53e-09 9.09e-13  5.54e-03     0s
   9   9.64394168e+01  8.45858672e+01  1.45e-09 9.09e-13  1.41e-03     0s
  10   9.47628532e+01  9.08420305e+01  4.27e-10 9.09e-13  4.68e-04     0s
  11   9.40541748e+01  9.28223039e+01  5.00e-11 9.09e-13  1.47e-04     0s
  12   9.39316786e+01  9.37710299e+01  8.99e-12 4.55e-13  1.92e-05     0s
  13   9.39251618e+01  9.39232073e+01  6.73e-12 9.09e-13  2.33e-07     0s
  14   9.39245743e+01  9.39245724e+01  6.33e-12 4.55e-13  2.33e-10     0s
  15   9.39245737e+01  9.39245737e+01  3.88e-12 6.82e-13  2.33e-13     0s

Barrier solved model in 15 iterations and 0.04 seconds (0.04 work units)
Optimal objective 9.39245737e+01

Crossover log...

     719 DPushes remaining with DInf 0.0000000e+00                 0s
       0 DPushes remaining with DInf 0.0000000e+00                 0s

      89 PPushes remaining with PInf 0.0000000e+00                 0s
       0 PPushes remaining with PInf 0.0000000e+00                 0s

  Push phase complete: Pinf 0.0000000e+00, Dinf 8.4418583e-14      0s

Iteration    Objective       Primal Inf.    Dual Inf.      Time
     135    9.3924574e+01   0.000000e+00   0.000000e+00      0s

Solved in 135 iterations and 0.05 seconds (0.04 work units)
Optimal objective  9.392457374e+01
